20170602 100 0 0 0
20160616 100 0 0 0
20150619 100 0 0 0
20140620 100 0 0 0
20130626 200 0 0 0
20120604 300 6000 0 0
20110516 100 0 0 0
20100603 100 0 0 0
20090603 100 0 0 0
20080923 0 10000 0 0
20080602 199 0 0 0
20070320 300 10000 0 0
20060606 50 4000 0 0
20050809 200 3000 0 0
20050615 200 3000 0 0
